p cnf 64 230
-5 2 0
-5 -4 0
-2 4 5 0
-3 5 -6 0
3 -5 -6 0
-3 -5 6 0
3 5 6 0
-2 6 -7 0
2 -6 -7 0
-2 -6 7 0
2 6 7 0
-8 -7 0
-8 -3 0
7 3 8 0
9 1 0
9 -8 0
-1 8 -9 0
-10 11 -12 0
10 -11 -12 0
-10 -11 12 0
10 11 12 0
12 -13 -14 0
-12 13 -14 0
12 13 14 0
-12 -13 14 0
15 -14 0
15 8 0
14 -8 -15 0
17 -2 0
17 -16 0
2 16 -17 0
10 -17 -18 0
-10 17 -18 0
10 17 18 0
-10 -17 18 0
-2 -3 -19 0
2 3 -19 0
-2 3 19 0
2 -3 19 0
20 18 0
20 19 0
-18 -19 -20 0
21 -14 0
21 -6 0
14 6 -21 0
23 -21 0
23 22 0
21 -22 -23 0
-20 -23 -24 0
20 23 -24 0
-20 23 24 0
20 -23 24 0
-25 15 0
-25 24 0
-15 -24 25 0
26 -9 0
26 25 0
9 -25 -26 0
27 -11 0
27 -16 0
11 16 -27 0
28 -27 0
28 8 0
27 -8 -28 0
-30 12 0
-30 29 0
-12 -29 30 0
-1 17 -31 0
1 -17 -31 0
-1 -17 31 0
1 17 31 0
32 -30 0
32 31 0
30 -31 -32 0
-6 13 -33 0
6 -13 -33 0
-6 -13 33 0
6 13 33 0
34 6 0
34 33 0
-6 -33 -34 0
-35 -32 0
-35 -34 0
32 34 35 0
36 -28 0
36 -35 0
28 35 -36 0
37 31 0
37 -8 0
-31 8 -37 0
-38 -1 0
-38 -1 0
1 38 0
38 -1 -39 0
-38 1 -39 0
38 1 39 0
-38 -1 39 0
40 -37 0
40 -39 0
37 39 -40 0
36 -40 -41 0
-36 40 -41 0
36 40 41 0
-36 -40 41 0
-42 26 0
-42 41 0
-26 -41 42 0
43 -2 0
43 -10 0
2 10 -43 0
-44 13 0
-44 1 0
-13 -1 44 0
-38 44 -45 0
38 -44 -45 0
-38 -44 45 0
38 44 45 0
46 43 0
46 45 0
-43 -45 -46 0
-46 1 -47 0
46 -1 -47 0
-46 -1 47 0
46 1 47 0
-48 6 0
-48 -5 0
-6 5 48 0
-49 -48 0
-49 -38 0
48 38 49 0
50 -17 0
50 17 0
-51 49 0
-51 50 0
-49 -50 51 0
52 -10 0
52 -6 0
10 6 -52 0
7 1 -53 0
-7 -1 -53 0
7 -1 53 0
-7 1 53 0
54 -52 0
54 -53 0
52 53 -54 0
55 7 0
55 -17 0
-7 17 -55 0
56 1 0
56 -55 0
-1 55 -56 0
-57 54 0
-57 -56 0
-54 56 57 0
-51 -57 -58 0
51 57 -58 0
-51 57 58 0
51 -57 58 0
-59 -27 0
-59 5 0
27 -5 59 0
-60 -58 0
-60 59 0
58 -59 60 0
61 47 0
61 -60 0
-47 60 -61 0
-62 -42 0
-62 -61 0
42 61 62 0
63 31 0
63 13 0
-31 -13 -63 0
64 62 0
64 -63 0
-62 63 -64 0
-18 -19 -38 20 0
-61 28 0
-11 -40 0
27 28 52 -8 -14 0
33 -54 -55 0
-64 48 -23 56 -45 0
-53 54 31 64 0
-13 -44 -43 0
4 41 -52 38 0
-32 21 -34 -63 0
39 -20 62 -5 -23 -26 0
30 63 -38 39 -24 0
-53 55 -63 0
44 61 -1 -63 0
62 34 9 -40 -3 0
-39 -30 0
-31 -11 25 -61 36 -50 0
-49 -4 15 11 58 -27 0
-62 -21 0
-55 -20 -23 56 0
5 -51 39 -58 0
7 58 30 0
60 -53 37 43 0
-37 -25 -45 40 32 51 0
-40 -24 -47 -49 0
-51 57 0
-57 -3 12 48 -60 -16 0
-5 -42 -10 -62 0
41 37 -8 35 -17 0
-27 -61 32 0
-18 11 -12 0
42 -61 27 34 0
15 41 26 -7 57 0
38 -25 -48 39 32 0
-42 10 -24 -29 0
28 39 24 63 -37 -51 0
1 -35 9 0
-62 -22 0
25 21 0
3 34 -30 0
-33 -6 0
3 -28 21 -49 -64 47 0
-27 -23 17 -32 0
-27 -33 -9 -23 0
-9 -42 -14 -33 0
-43 6 34 47 1 0
12 -41 9 56 -24 55 0
61 -52 49 -60 46 39 0
-30 40 10 52 19 0
-58 29 37 0
-64 38 -41 -34 4 0
-11 39 52 56 -36 -4 0
58 -61 -41 0
64 0
